# Solution for model GasLib-40
# Objective value = 5.9627901478231081e+01
loadshed[innode_1] 0
loadshed[innode_2] 0
loadshed[innode_3] 0
loadshed[innode_4] 0
loadshed[innode_5] 0
loadshed[innode_6] 0
loadshed[innode_7] 0
loadshed[innode_8] 0
loadshed[source_1] -2.7118552388588846e-02
loadshed[source_2] 1.2628893350739367e-01
loadshed[source_3] 2.7800589003709419e-01
loadshed[sink_1] 7.2432030123522173e-01
loadshed[sink_2] 0
loadshed[sink_3] 0
loadshed[sink_4] 0
loadshed[sink_5] 0
loadshed[sink_6] 0
loadshed[sink_7] 0
loadshed[sink_8] 0
loadshed[sink_9] 0
loadshed[sink_10] 0
loadshed[sink_11] 0
loadshed[sink_12] 1
loadshed[sink_13] 0
loadshed[sink_14] 0
loadshed[sink_15] 0
loadshed[sink_16] 0
loadshed[sink_17] 0
loadshed[sink_18] 0
loadshed[sink_19] 0
loadshed[sink_20] 0
loadshed[sink_21] 1
loadshed[sink_22] 0
loadshed[sink_23] 0
loadshed[sink_24] 9.2171698660565959e-01
loadshed[sink_25] 0
loadshed[sink_26] 0
loadshed[sink_27] 0
loadshed[sink_28] 0
loadshed[sink_29] 0
flow[source_1,sink_3] 162.377457257821
flow[innode_1,sink_16] 1.6354166666666970e+01
flow[innode_6,sink_13] 3.3891726871193839e-01
flow[sink_13,sink_14] -1.6015249397954729e+01
flow[sink_14,sink_10] -32.3694160646214
flow[sink_25,sink_26] 4.9062500000001364e+01
flow[sink_26,sink_9] 3.2708333333334551e+01
flow[sink_9,sink_18] 1.6354166666667879e+01
flow[sink_26,sink_4] 0
flow[sink_4,sink_20] 0
flow[sink_18,sink_6] 0
flow[sink_25,innode_8] -1.2966912392448461e+02
flow[sink_6,sink_7] -3.7216845073548981e+01
flow[sink_6,sink_22] 2.0862678406882313e+01
flow[sink_7,sink_24] 1.2802534482199417e+00
flow[sink_22,sink_1] 4.5085117402156447e+00
flow[sink_24,sink_21] 0
flow[sink_21,sink_12] 0
flow[sink_7,sink_5] -5.4851265188435583e+01
flow[sink_5,sink_17] -7.1205431855102248e+01
flow[sink_17,sink_4] 16.3541666666693
flow[sink_17,sink_8] -1.0391376518843822e+02
flow[sink_3,sink_23] 16.3541666666697
flow[sink_8,sink_20] -1.2026793185510489e+02
flow[sink_25,sink_20] 1.3662209852177156e+02
flow[sink_25,sink_15] -7.2708558532666714e+01
flow[sink_15,sink_29] -51.1479625248626
flow[sink_29,sink_28] 1.6354166666667879e+01
flow[sink_29,sink_2] 5.4268929341137458e+01
flow[sink_2,sink_15] 3.7914762674470794e+01
flow[sink_29,innode_7] -1.3812522519933461e+02
flow[innode_4,sink_19] 4.4035727906613893e+01
flow[sink_19,innode_3] 39.7384313156046
flow[innode_4,innode_5] 7.0104521491341316e+01
flow[sink_27,innode_5] -7.0104521491341316e+01
flow[sink_27,sink_19] 5.3750354824674645e+01
flow[sink_10,sink_11] 3.2708333333333641e+01
flow[sink_10,innode_2] -4.1693484749017273e+01
flow[sink_10,innode_3] -39.7384313156046
flow[innode_6,sink_25] -3.3891726871193839e-01
flow[sink_11,innode_1] 1.6354166666666970e+01
flow[sink_19,innode_2] 4.1693484749017273e+01
flow[source_3,innode_4] 1.1414024939795522e+02
flow[source_2,innode_7] 1.3812522519933461e+02
flow[sink_3,innode_8] 1.2966912392448461e+02
pressure[innode_1] 76.873876282508
pressure[innode_2] 7.9229250458828858e+01
pressure[innode_3] 7.9141254202569641e+01
pressure[innode_4] 81.01325
pressure[innode_5] 8.0965028413495389e+01
pressure[innode_6] 7.5467757402909839e+01
pressure[innode_7] 81.01325
pressure[innode_8] 8.0470484190824138e+01
pressure[source_1] 81.01325
pressure[source_2] 81.01325
pressure[source_3] 81.01325
pressure[sink_1] 1.01325
pressure[sink_2] 7.5944248104453308e+01
pressure[sink_3] 8.0470484190824138e+01
pressure[sink_4] 2.9970544721161552e+01
pressure[sink_5] 25.2912570594033
pressure[sink_6] 1.9681462337325237e+00
pressure[sink_7] 2.4790448050603024e+00
pressure[sink_8] 34.5164833668473
pressure[sink_9] 7.0054636172833554e+01
pressure[sink_10] 7.7025577590111538e+01
pressure[sink_11] 76.873876282508
pressure[sink_12] 1.01325
pressure[sink_13] 7.5465889008645775e+01
pressure[sink_14] 7.5494549661641017e+01
pressure[sink_15] 7.5820464760600260e+01
pressure[sink_16] 7.5852226447690313e+01
pressure[sink_17] 30.595547044964
pressure[sink_18] 6.9462893679033854e+01
pressure[sink_19] 7.9229250458828858e+01
pressure[sink_20] 4.2897466856624810e+01
pressure[sink_21] 1.01325
pressure[sink_22] 1.3065095567196903e+00
pressure[sink_23] 8.0305766179164351e+01
pressure[sink_24] 1.01325
pressure[sink_25] 7.5467757402909839e+01
pressure[sink_26] 7.2012314340718163e+01
pressure[sink_27] 80.3832904243444
pressure[sink_28] 7.7023659057248665e+01
pressure[sink_29] 7.7318941330865840e+01
interdiction[source_1,sink_3] 0
interdiction[innode_1,sink_16] 0
interdiction[innode_6,sink_13] 0
interdiction[sink_13,sink_14] 0
interdiction[sink_14,sink_10] 0
interdiction[sink_25,sink_26] 0
interdiction[sink_26,sink_9] 0
interdiction[sink_9,sink_18] 0
interdiction[sink_26,sink_4] 1
interdiction[sink_4,sink_20] 1
interdiction[sink_18,sink_6] 1
interdiction[sink_25,innode_8] 0
interdiction[sink_6,sink_7] 0
interdiction[sink_6,sink_22] 0
interdiction[sink_7,sink_24] 0
interdiction[sink_22,sink_1] 0
interdiction[sink_24,sink_21] 0
interdiction[sink_21,sink_12] 0
interdiction[sink_7,sink_5] 0
interdiction[sink_5,sink_17] 0
interdiction[sink_17,sink_4] 0
interdiction[sink_17,sink_8] 0
interdiction[sink_3,sink_23] 0
interdiction[sink_8,sink_20] 0
interdiction[sink_25,sink_20] 0
interdiction[sink_25,sink_15] 0
interdiction[sink_15,sink_29] 0
interdiction[sink_29,sink_28] 0
interdiction[sink_29,sink_2] 0
interdiction[sink_2,sink_15] 0
interdiction[sink_29,innode_7] 0
interdiction[innode_4,sink_19] 0
interdiction[sink_19,innode_3] 0
interdiction[innode_4,innode_5] 0
interdiction[sink_27,innode_5] 0
interdiction[sink_27,sink_19] 0
interdiction[sink_10,sink_11] 0
interdiction[sink_10,innode_2] 0
interdiction[sink_10,innode_3] 0
interdiction[innode_6,sink_25] 0
interdiction[sink_11,innode_1] 0
interdiction[sink_19,innode_2] 0
interdiction[source_3,innode_4] 0
interdiction[source_2,innode_7] 0
interdiction[sink_3,innode_8] 0
WCcheckFlow[source_1,sink_3] 39
WCcheckFlow[innode_1,sink_16] 1
WCcheckFlow[innode_6,sink_13] 13
WCcheckFlow[sink_13,sink_14] 12
WCcheckFlow[sink_14,sink_10] 11
WCcheckFlow[sink_25,sink_26] 3
WCcheckFlow[sink_26,sink_9] 2
WCcheckFlow[sink_9,sink_18] 1
WCcheckFlow[sink_26,sink_4] 0
WCcheckFlow[sink_4,sink_20] 0
WCcheckFlow[sink_18,sink_6] 0
WCcheckFlow[sink_25,innode_8] -36
WCcheckFlow[sink_6,sink_7] -3
WCcheckFlow[sink_6,sink_22] 2
WCcheckFlow[sink_7,sink_24] 3
WCcheckFlow[sink_22,sink_1] 1
WCcheckFlow[sink_24,sink_21] 2
WCcheckFlow[sink_21,sink_12] 1
WCcheckFlow[sink_7,sink_5] -7
WCcheckFlow[sink_5,sink_17] -8
WCcheckFlow[sink_17,sink_4] 1
WCcheckFlow[sink_17,sink_8] -10
WCcheckFlow[sink_3,sink_23] 1
WCcheckFlow[sink_8,sink_20] -11
WCcheckFlow[sink_25,sink_20] 12
WCcheckFlow[sink_25,sink_15] 6
WCcheckFlow[sink_15,sink_29] 5
WCcheckFlow[sink_29,sink_28] 1
WCcheckFlow[sink_29,sink_2] 1
WCcheckFlow[sink_2,sink_15] 0
WCcheckFlow[sink_29,innode_7] 2
WCcheckFlow[innode_4,sink_19] -4
WCcheckFlow[sink_19,innode_3] -5
WCcheckFlow[innode_4,innode_5] 2
WCcheckFlow[sink_27,innode_5] -1
WCcheckFlow[sink_27,sink_19] 0
WCcheckFlow[sink_10,sink_11] 3
WCcheckFlow[sink_10,innode_2] 1
WCcheckFlow[sink_10,innode_3] 6
WCcheckFlow[innode_6,sink_25] -14
WCcheckFlow[sink_11,innode_1] 2
WCcheckFlow[sink_19,innode_2] 0
WCcheckFlow[source_3,innode_4] -1
WCcheckFlow[source_2,innode_7] -1
WCcheckFlow[sink_3,innode_8] 37
